nNurses = 66;
nHours = 40;
minHours = 8;
maxHours = 15;
maxConsec = 10;
maxPresence = 15;
demand = [16, 18, 23, 24, 25, 25, 22, 20, 17, 20, 23, 24, 25, 22, 17, 13, 12, 8, 6, 10, 9, 11, 7, 11, 7, 11, 9, 10, 12, 10, 9, 10, 9, 6, 7, 8, 12, 16, 14, 12];
